70
1 0 8
2 0 1
2 1 4
3 0 6
3 1 4
3 2 5
4 0 5
4 1 8
4 2 1
4 3 8
5 0 6
5 1 8
5 2 2
5 3 2
5 4 1
6 0 5
6 1 7
6 2 5
6 3 3
6 4 3
6 5 2
7 0 3
7 1 3
7 2 2
7 3 8
7 4 7
7 5 3
7 6 4
8 0 4
8 1 8
8 2 2
8 3 8
8 4 6
8 5 6
8 6 3
8 7 2
9 0 8
9 1 3
9 2 4
9 3 7
9 4 1
9 5 2
9 6 1
9 7 2
9 8 6
10 0 7
10 1 6
10 2 8
10 3 7
10 4 4
10 5 8
10 6 2
10 7 4
10 8 2
10 9 7
11 0 1
11 1 5
11 2 4
11 3 4
11 4 8
11 5 5
11 6 1
11 7 5
11 8 4
11 9 4
11 10 8
12 0 2
12 1 1
12 2 1
12 3 8
12 4 5
12 5 7
12 6 2
12 7 4
12 8 6
12 9 8
12 10 4
12 11 5
13 0 7
13 1 6
13 2 3
13 3 8
13 4 8
13 5 5
13 6 7
13 7 2
13 8 5
13 9 1
13 10 7
13 11 3
13 12 6
14 0 3
14 1 6
14 2 1
14 3 6
14 4 7
14 5 4
14 6 7
14 7 5
14 8 5
14 9 4
14 10 8
14 11 3
14 12 1
14 13 7
15 0 5
15 1 8
15 2 8
15 3 8
15 4 2
15 5 4
15 6 5
15 7 4
15 8 3
15 9 7
15 10 7
15 11 5
15 12 6
15 13 3
15 14 2
16 0 3
16 1 2
16 2 5
16 3 6
16 4 6
16 5 6
16 6 8
16 7 6
16 8 3
16 9 7
16 10 8
16 11 4
16 12 2
16 13 7
16 14 3
16 15 5
17 0 5
17 1 5
17 2 7
17 3 7
17 4 6
17 5 8
17 6 8
17 7 1
17 8 3
17 9 4
17 10 1
17 11 5
17 12 2
17 13 8
17 14 8
17 15 2
17 16 8
18 0 2
18 1 3
18 2 1
18 3 1
18 4 1
18 5 1
18 6 6
18 7 8
18 8 1
18 9 3
18 10 6
18 11 4
18 12 7
18 13 6
18 14 5
18 15 7
18 16 6
18 17 5
19 0 5
19 1 7
19 2 5
19 3 2
19 4 8
19 5 7
19 6 7
19 7 5
19 8 1
19 9 8
19 10 4
19 11 3
19 12 6
19 13 1
19 14 1
19 15 7
19 16 2
19 17 2
19 18 1
20 0 1
20 1 7
20 2 5
20 3 8
20 4 3
20 5 3
20 6 7
20 7 7
20 8 5
20 9 2
20 10 5
20 11 1
20 12 7
20 13 1
20 14 2
20 15 5
20 16 1
20 17 2
20 18 4
20 19 8
21 0 5
21 1 8
21 2 6
21 3 4
21 4 4
21 5 1
21 6 7
21 7 5
21 8 6
21 9 7
21 10 6
21 11 5
21 12 8
21 13 8
21 14 5
21 15 5
21 16 7
21 17 3
21 18 2
21 19 1
21 20 8
22 0 3
22 1 4
22 2 2
22 3 8
22 4 1
22 5 6
22 6 1
22 7 6
22 8 2
22 9 2
22 10 5
22 11 1
22 12 7
22 13 7
22 14 5
22 15 1
22 16 8
22 17 8
22 18 6
22 19 5
22 20 7
22 21 6
23 0 5
23 1 1
23 2 7
23 3 3
23 4 7
23 5 2
23 6 8
23 7 3
23 8 5
23 9 4
23 10 6
23 11 6
23 12 8
23 13 7
23 14 2
23 15 4
23 16 1
23 17 2
23 18 2
23 19 7
23 20 8
23 21 8
23 22 7
24 0 1
24 1 5
24 2 6
24 3 5
24 4 5
24 5 5
24 6 8
24 7 2
24 8 7
24 9 5
24 10 6
24 11 8
24 12 1
24 13 4
24 14 7
24 15 8
24 16 8
24 17 2
24 18 7
24 19 6
24 20 1
24 21 4
24 22 1
24 23 5
25 0 7
25 1 4
25 2 6
25 3 5
25 4 4
25 5 1
25 6 4
25 7 7
25 8 2
25 9 5
25 10 6
25 11 5
25 12 3
25 13 3
25 14 1
25 15 5
25 16 7
25 17 5
25 18 1
25 19 6
25 20 2
25 21 5
25 22 4
25 23 2
25 24 1
26 0 6
26 1 8
26 2 1
26 3 3
26 4 2
26 5 2
26 6 4
26 7 3
26 8 8
26 9 1
26 10 6
26 11 2
26 12 6
26 13 8
26 14 7
26 15 5
26 16 2
26 17 6
26 18 7
26 19 8
26 20 6
26 21 6
26 22 6
26 23 3
26 24 6
26 25 7
27 0 7
27 1 5
27 2 7
27 3 6
27 4 8
27 5 8
27 6 4
27 7 7
27 8 5
27 9 7
27 10 3
27 11 5
27 12 8
27 13 7
27 14 4
27 15 8
27 16 6
27 17 7
27 18 2
27 19 5
27 20 7
27 21 2
27 22 3
27 23 8
27 24 4
27 25 6
27 26 6
28 0 4
28 1 1
28 2 7
28 3 7
28 4 1
28 5 1
28 6 7
28 7 4
28 8 3
28 9 3
28 10 7
28 11 2
28 12 2
28 13 6
28 14 7
28 15 5
28 16 8
28 17 2
28 18 7
28 19 8
28 20 7
28 21 3
28 22 8
28 23 6
28 24 7
28 25 2
28 26 5
28 27 3
29 0 2
29 1 4
29 2 4
29 3 6
29 4 2
29 5 3
29 6 7
29 7 7
29 8 6
29 9 8
29 10 2
29 11 6
29 12 5
29 13 5
29 14 7
29 15 6
29 16 7
29 17 7
29 18 7
29 19 2
29 20 1
29 21 2
29 22 3
29 23 4
29 24 5
29 25 2
29 26 3
29 27 7
29 28 4
30 0 5
30 1 4
30 2 5
30 3 4
30 4 2
30 5 5
30 6 7
30 7 7
30 8 3
30 9 4
30 10 5
30 11 6
30 12 8
30 13 5
30 14 2
30 15 2
30 16 5
30 17 8
30 18 4
30 19 2
30 20 8
30 21 3
30 22 2
30 23 7
30 24 6
30 25 4
30 26 1
30 27 6
30 28 3
30 29 6
31 0 4
31 1 3
31 2 6
31 3 8
31 4 4
31 5 7
31 6 3
31 7 2
31 8 4
31 9 3
31 10 8
31 11 8
31 12 2
31 13 2
31 14 4
31 15 6
31 16 6
31 17 5
31 18 4
31 19 1
31 20 6
31 21 4
31 22 5
31 23 3
31 24 6
31 25 7
31 26 8
31 27 5
31 28 7
31 29 7
31 30 2
32 0 5
32 1 8
32 2 6
32 3 1
32 4 7
32 5 6
32 6 6
32 7 1
32 8 1
32 9 8
32 10 3
32 11 5
32 12 1
32 13 7
32 14 1
32 15 2
32 16 4
32 17 8
32 18 6
32 19 5
32 20 5
32 21 6
32 22 2
32 23 8
32 24 2
32 25 8
32 26 5
32 27 8
32 28 4
32 29 5
32 30 1
32 31 5
33 0 1
33 1 7
33 2 5
33 3 4
33 4 8
33 5 5
33 6 2
33 7 5
33 8 8
33 9 3
33 10 4
33 11 5
33 12 2
33 13 6
33 14 7
33 15 5
33 16 1
33 17 5
33 18 2
33 19 3
33 20 5
33 21 7
33 22 4
33 23 6
33 24 3
33 25 2
33 26 2
33 27 1
33 28 6
33 29 5
33 30 7
33 31 7
33 32 3
34 0 7
34 1 3
34 2 1
34 3 4
34 4 4
34 5 6
34 6 4
34 7 1
34 8 4
34 9 5
34 10 1
34 11 2
34 12 8
34 13 5
34 14 5
34 15 5
34 16 2
34 17 5
34 18 3
34 19 4
34 20 4
34 21 1
34 22 5
34 23 2
34 24 7
34 25 6
34 26 8
34 27 7
34 28 1
34 29 4
34 30 8
34 31 7
34 32 5
34 33 4
35 0 3
35 1 3
35 2 2
35 3 1
35 4 8
35 5 2
35 6 6
35 7 5
35 8 5
35 9 5
35 10 4
35 11 2
35 12 4
35 13 4
35 14 8
35 15 5
35 16 6
35 17 1
35 18 1
35 19 5
35 20 6
35 21 5
35 22 5
35 23 2
35 24 8
35 25 3
35 26 6
35 27 3
35 28 4
35 29 4
35 30 6
35 31 1
35 32 7
35 33 2
35 34 2
36 0 3
36 1 4
36 2 6
36 3 2
36 4 6
36 5 2
36 6 4
36 7 8
36 8 7
36 9 6
36 10 5
36 11 7
36 12 1
36 13 8
36 14 6
36 15 6
36 16 1
36 17 2
36 18 6
36 19 6
36 20 5
36 21 7
36 22 4
36 23 5
36 24 6
36 25 6
36 26 5
36 27 7
36 28 8
36 29 6
36 30 7
36 31 7
36 32 6
36 33 2
36 34 1
36 35 4
37 0 3
37 1 4
37 2 1
37 3 6
37 4 2
37 5 2
37 6 3
37 7 1
37 8 8
37 9 7
37 10 5
37 11 2
37 12 5
37 13 4
37 14 1
37 15 3
37 16 7
37 17 3
37 18 1
37 19 7
37 20 7
37 21 8
37 22 7
37 23 1
37 24 4
37 25 8
37 26 1
37 27 4
37 28 3
37 29 8
37 30 4
37 31 1
37 32 4
37 33 8
37 34 2
37 35 4
37 36 2
38 0 5
38 1 2
38 2 8
38 3 3
38 4 2
38 5 2
38 6 1
38 7 3
38 8 6
38 9 4
38 10 6
38 11 3
38 12 3
38 13 5
38 14 3
38 15 4
38 16 1
38 17 2
38 18 5
38 19 6
38 20 4
38 21 7
38 22 1
38 23 4
38 24 5
38 25 5
38 26 3
38 27 8
38 28 6
38 29 7
38 30 6
38 31 7
38 32 8
38 33 6
38 34 4
38 35 7
38 36 7
38 37 8
39 0 5
39 1 2
39 2 7
39 3 5
39 4 8
39 5 5
39 6 3
39 7 1
39 8 6
39 9 8
39 10 1
39 11 4
39 12 5
39 13 4
39 14 6
39 15 3
39 16 6
39 17 1
39 18 8
39 19 6
39 20 4
39 21 2
39 22 7
39 23 7
39 24 6
39 25 3
39 26 6
39 27 5
39 28 3
39 29 6
39 30 6
39 31 4
39 32 1
39 33 1
39 34 7
39 35 4
39 36 5
39 37 1
39 38 1
40 0 7
40 1 7
40 2 6
40 3 8
40 4 4
40 5 2
40 6 5
40 7 8
40 8 1
40 9 5
40 10 2
40 11 8
40 12 1
40 13 7
40 14 1
40 15 2
40 16 2
40 17 6
40 18 5
40 19 6
40 20 5
40 21 2
40 22 8
40 23 4
40 24 6
40 25 4
40 26 4
40 27 8
40 28 7
40 29 1
40 30 2
40 31 5
40 32 5
40 33 4
40 34 8
40 35 8
40 36 3
40 37 6
40 38 4
40 39 8
41 0 6
41 1 1
41 2 8
41 3 1
41 4 4
41 5 6
41 6 6
41 7 8
41 8 8
41 9 4
41 10 8
41 11 1
41 12 1
41 13 8
41 14 8
41 15 5
41 16 6
41 17 7
41 18 4
41 19 4
41 20 4
41 21 3
41 22 4
41 23 8
41 24 8
41 25 2
41 26 4
41 27 8
41 28 4
41 29 8
41 30 2
41 31 2
41 32 5
41 33 4
41 34 7
41 35 8
41 36 6
41 37 3
41 38 1
41 39 7
41 40 7
42 0 1
42 1 1
42 2 6
42 3 4
42 4 3
42 5 1
42 6 2
42 7 8
42 8 4
42 9 7
42 10 6
42 11 4
42 12 4
42 13 8
42 14 2
42 15 8
42 16 5
42 17 4
42 18 7
42 19 3
42 20 4
42 21 2
42 22 8
42 23 4
42 24 7
42 25 8
42 26 7
42 27 3
42 28 6
42 29 6
42 30 2
42 31 8
42 32 7
42 33 6
42 34 8
42 35 5
42 36 2
42 37 7
42 38 2
42 39 5
42 40 7
42 41 6
43 0 6
43 1 2
43 2 1
43 3 4
43 4 4
43 5 6
43 6 4
43 7 2
43 8 2
43 9 8
43 10 4
43 11 4
43 12 5
43 13 5
43 14 3
43 15 4
43 16 2
43 17 4
43 18 5
43 19 7
43 20 5
43 21 1
43 22 4
43 23 6
43 24 6
43 25 8
43 26 8
43 27 3
43 28 6
43 29 1
43 30 3
43 31 5
43 32 4
43 33 1
43 34 3
43 35 2
43 36 4
43 37 8
43 38 6
43 39 1
43 40 3
43 41 7
43 42 7
44 0 2
44 1 6
44 2 7
44 3 3
44 4 5
44 5 4
44 6 6
44 7 3
44 8 2
44 9 3
44 10 2
44 11 6
44 12 1
44 13 2
44 14 6
44 15 7
44 16 5
44 17 2
44 18 4
44 19 8
44 20 1
44 21 5
44 22 2
44 23 6
44 24 2
44 25 8
44 26 3
44 27 3
44 28 2
44 29 8
44 30 8
44 31 3
44 32 7
44 33 1
44 34 2
44 35 3
44 36 7
44 37 2
44 38 8
44 39 6
44 40 1
44 41 6
44 42 6
44 43 2
45 0 8
45 1 8
45 2 3
45 3 6
45 4 1
45 5 7
45 6 6
45 7 8
45 8 1
45 9 3
45 10 8
45 11 6
45 12 6
45 13 2
45 14 5
45 15 8
45 16 8
45 17 2
45 18 5
45 19 6
45 20 8
45 21 4
45 22 8
45 23 6
45 24 5
45 25 4
45 26 5
45 27 8
45 28 7
45 29 2
45 30 2
45 31 6
45 32 5
45 33 4
45 34 3
45 35 1
45 36 3
45 37 6
45 38 2
45 39 1
45 40 6
45 41 3
45 42 3
45 43 3
45 44 4
46 0 8
46 1 4
46 2 4
46 3 1
46 4 7
46 5 5
46 6 3
46 7 2
46 8 3
46 9 3
46 10 7
46 11 6
46 12 1
46 13 2
46 14 7
46 15 4
46 16 6
46 17 2
46 18 8
46 19 7
46 20 3
46 21 6
46 22 5
46 23 6
46 24 7
46 25 3
46 26 5
46 27 7
46 28 7
46 29 7
46 30 8
46 31 7
46 32 5
46 33 7
46 34 7
46 35 5
46 36 4
46 37 3
46 38 3
46 39 8
46 40 3
46 41 6
46 42 8
46 43 2
46 44 5
46 45 4
47 0 1
47 1 7
47 2 1
47 3 3
47 4 6
47 5 4
47 6 2
47 7 5
47 8 3
47 9 5
47 10 6
47 11 4
47 12 2
47 13 1
47 14 2
47 15 6
47 16 6
47 17 1
47 18 7
47 19 6
47 20 2
47 21 4
47 22 4
47 23 7
47 24 3
47 25 6
47 26 4
47 27 5
47 28 7
47 29 8
47 30 1
47 31 2
47 32 5
47 33 1
47 34 2
47 35 1
47 36 3
47 37 5
47 38 7
47 39 8
47 40 7
47 41 2
47 42 3
47 43 7
47 44 4
47 45 1
47 46 3
48 0 7
48 1 8
48 2 7
48 3 3
48 4 4
48 5 7
48 6 5
48 7 4
48 8 7
48 9 2
48 10 5
48 11 6
48 12 8
48 13 2
48 14 5
48 15 8
48 16 1
48 17 4
48 18 1
48 19 2
48 20 8
48 21 2
48 22 8
48 23 1
48 24 6
48 25 6
48 26 2
48 27 7
48 28 4
48 29 7
48 30 3
48 31 6
48 32 2
48 33 8
48 34 2
48 35 5
48 36 8
48 37 7
48 38 2
48 39 7
48 40 8
48 41 5
48 42 3
48 43 1
48 44 6
48 45 7
48 46 1
48 47 8
49 0 5
49 1 6
49 2 7
49 3 7
49 4 7
49 5 2
49 6 2
49 7 2
49 8 7
49 9 2
49 10 2
49 11 8
49 12 1
49 13 1
49 14 4
49 15 5
49 16 3
49 17 8
49 18 5
49 19 5
49 20 8
49 21 1
49 22 7
49 23 4
49 24 6
49 25 7
49 26 2
49 27 5
49 28 4
49 29 3
49 30 4
49 31 2
49 32 1
49 33 1
49 34 8
49 35 7
49 36 5
49 37 5
49 38 2
49 39 6
49 40 6
49 41 2
49 42 7
49 43 8
49 44 1
49 45 2
49 46 7
49 47 4
49 48 7
50 0 2
50 1 5
50 2 5
50 3 3
50 4 4
50 5 2
50 6 1
50 7 2
50 8 7
50 9 2
50 10 2
50 11 2
50 12 4
50 13 6
50 14 7
50 15 4
50 16 2
50 17 8
50 18 4
50 19 1
50 20 2
50 21 7
50 22 5
50 23 6
50 24 8
50 25 8
50 26 8
50 27 1
50 28 3
50 29 2
50 30 1
50 31 5
50 32 7
50 33 2
50 34 6
50 35 2
50 36 1
50 37 2
50 38 1
50 39 2
50 40 5
50 41 2
50 42 4
50 43 5
50 44 3
50 45 5
50 46 1
50 47 4
50 48 3
50 49 5
51 0 7
51 1 3
51 2 2
51 3 8
51 4 3
51 5 3
51 6 6
51 7 7
51 8 1
51 9 4
51 10 2
51 11 7
51 12 6
51 13 2
51 14 3
51 15 1
51 16 7
51 17 3
51 18 8
51 19 7
51 20 7
51 21 7
51 22 7
51 23 8
51 24 7
51 25 3
51 26 1
51 27 5
51 28 1
51 29 8
51 30 4
51 31 4
51 32 2
51 33 1
51 34 2
51 35 8
51 36 6
51 37 1
51 38 3
51 39 6
51 40 4
51 41 7
51 42 8
51 43 8
51 44 6
51 45 5
51 46 1
51 47 2
51 48 5
51 49 3
51 50 2
52 0 8
52 1 4
52 2 6
52 3 3
52 4 8
52 5 6
52 6 7
52 7 1
52 8 2
52 9 8
52 10 4
52 11 6
52 12 3
52 13 5
52 14 7
52 15 6
52 16 5
52 17 5
52 18 2
52 19 2
52 20 3
52 21 6
52 22 7
52 23 6
52 24 8
52 25 4
52 26 2
52 27 2
52 28 1
52 29 2
52 30 5
52 31 7
52 32 1
52 33 3
52 34 8
52 35 6
52 36 8
52 37 7
52 38 3
52 39 4
52 40 1
52 41 4
52 42 5
52 43 8
52 44 5
52 45 3
52 46 6
52 47 2
52 48 5
52 49 3
52 50 7
52 51 3
53 0 2
53 1 3
53 2 5
53 3 1
53 4 2
53 5 3
53 6 4
53 7 5
53 8 3
53 9 4
53 10 8
53 11 6
53 12 8
53 13 5
53 14 6
53 15 8
53 16 5
53 17 5
53 18 3
53 19 3
53 20 4
53 21 1
53 22 2
53 23 1
53 24 5
53 25 5
53 26 3
53 27 5
53 28 3
53 29 8
53 30 6
53 31 2
53 32 1
53 33 3
53 34 7
53 35 6
53 36 2
53 37 4
53 38 2
53 39 1
53 40 8
53 41 5
53 42 8
53 43 8
53 44 6
53 45 7
53 46 1
53 47 2
53 48 6
53 49 2
53 50 3
53 51 5
53 52 3
54 0 1
54 1 4
54 2 4
54 3 6
54 4 1
54 5 8
54 6 2
54 7 2
54 8 5
54 9 1
54 10 2
54 11 1
54 12 2
54 13 5
54 14 8
54 15 3
54 16 8
54 17 2
54 18 6
54 19 7
54 20 8
54 21 3
54 22 6
54 23 7
54 24 6
54 25 6
54 26 4
54 27 4
54 28 5
54 29 5
54 30 8
54 31 4
54 32 7
54 33 3
54 34 2
54 35 7
54 36 3
54 37 2
54 38 4
54 39 4
54 40 8
54 41 8
54 42 3
54 43 5
54 44 1
54 45 5
54 46 4
54 47 3
54 48 5
54 49 1
54 50 8
54 51 8
54 52 6
54 53 5
55 0 3
55 1 7
55 2 1
55 3 6
55 4 6
55 5 2
55 6 2
55 7 2
55 8 2
55 9 1
55 10 4
55 11 7
55 12 8
55 13 3
55 14 8
55 15 6
55 16 2
55 17 3
55 18 8
55 19 2
55 20 5
55 21 3
55 22 7
55 23 4
55 24 3
55 25 8
55 26 5
55 27 5
55 28 3
55 29 8
55 30 4
55 31 7
55 32 6
55 33 1
55 34 5
55 35 2
55 36 8
55 37 5
55 38 1
55 39 1
55 40 4
55 41 6
55 42 8
55 43 5
55 44 7
55 45 6
55 46 4
55 47 6
55 48 2
55 49 8
55 50 6
55 51 7
55 52 8
55 53 7
55 54 8
56 0 2
56 1 4
56 2 5
56 3 7
56 4 1
56 5 6
56 6 8
56 7 3
56 8 6
56 9 2
56 10 5
56 11 6
56 12 2
56 13 4
56 14 8
56 15 6
56 16 7
56 17 3
56 18 4
56 19 2
56 20 1
56 21 8
56 22 8
56 23 7
56 24 2
56 25 4
56 26 3
56 27 2
56 28 2
56 29 3
56 30 8
56 31 1
56 32 5
56 33 4
56 34 5
56 35 5
56 36 6
56 37 7
56 38 7
56 39 3
56 40 8
56 41 8
56 42 3
56 43 7
56 44 1
56 45 6
56 46 2
56 47 6
56 48 2
56 49 4
56 50 6
56 51 5
56 52 5
56 53 1
56 54 8
56 55 1
57 0 2
57 1 4
57 2 7
57 3 7
57 4 4
57 5 5
57 6 1
57 7 6
57 8 8
57 9 4
57 10 3
57 11 3
57 12 8
57 13 5
57 14 7
57 15 1
57 16 1
57 17 4
57 18 5
57 19 8
57 20 8
57 21 1
57 22 2
57 23 8
57 24 7
57 25 3
57 26 5
57 27 6
57 28 6
57 29 8
57 30 1
57 31 5
57 32 8
57 33 8
57 34 5
57 35 3
57 36 8
57 37 1
57 38 6
57 39 3
57 40 6
57 41 6
57 42 8
57 43 7
57 44 1
57 45 1
57 46 2
57 47 3
57 48 5
57 49 4
57 50 3
57 51 5
57 52 5
57 53 8
57 54 3
57 55 6
57 56 3
58 0 6
58 1 7
58 2 1
58 3 5
58 4 2
58 5 1
58 6 1
58 7 1
58 8 2
58 9 1
58 10 5
58 11 1
58 12 1
58 13 6
58 14 1
58 15 8
58 16 1
58 17 2
58 18 2
58 19 6
58 20 3
58 21 2
58 22 4
58 23 5
58 24 1
58 25 8
58 26 7
58 27 7
58 28 7
58 29 1
58 30 1
58 31 6
58 32 3
58 33 8
58 34 3
58 35 6
58 36 5
58 37 3
58 38 8
58 39 3
58 40 1
58 41 2
58 42 7
58 43 8
58 44 3
58 45 7
58 46 2
58 47 6
58 48 5
58 49 4
58 50 2
58 51 5
58 52 6
58 53 7
58 54 1
58 55 8
58 56 7
58 57 1
59 0 8
59 1 7
59 2 4
59 3 1
59 4 8
59 5 2
59 6 6
59 7 8
59 8 3
59 9 6
59 10 7
59 11 2
59 12 7
59 13 5
59 14 2
59 15 2
59 16 3
59 17 2
59 18 8
59 19 1
59 20 2
59 21 8
59 22 4
59 23 5
59 24 7
59 25 7
59 26 2
59 27 7
59 28 7
59 29 2
59 30 5
59 31 5
59 32 8
59 33 2
59 34 6
59 35 6
59 36 3
59 37 8
59 38 4
59 39 3
59 40 1
59 41 5
59 42 2
59 43 4
59 44 4
59 45 7
59 46 3
59 47 3
59 48 4
59 49 6
59 50 4
59 51 3
59 52 3
59 53 2
59 54 7
59 55 8
59 56 6
59 57 6
59 58 4
60 0 4
60 1 2
60 2 1
60 3 1
60 4 6
60 5 5
60 6 3
60 7 5
60 8 4
60 9 7
60 10 1
60 11 7
60 12 8
60 13 5
60 14 2
60 15 6
60 16 8
60 17 5
60 18 8
60 19 5
60 20 1
60 21 2
60 22 1
60 23 6
60 24 2
60 25 3
60 26 4
60 27 8
60 28 8
60 29 4
60 30 4
60 31 2
60 32 7
60 33 5
60 34 2
60 35 3
60 36 2
60 37 8
60 38 7
60 39 2
60 40 3
60 41 6
60 42 6
60 43 6
60 44 7
60 45 8
60 46 6
60 47 8
60 48 4
60 49 2
60 50 6
60 51 7
60 52 8
60 53 7
60 54 2
60 55 6
60 56 8
60 57 2
60 58 4
60 59 5
61 0 6
61 1 3
61 2 1
61 3 6
61 4 2
61 5 7
61 6 8
61 7 2
61 8 4
61 9 8
61 10 1
61 11 4
61 12 3
61 13 1
61 14 5
61 15 4
61 16 2
61 17 1
61 18 7
61 19 1
61 20 5
61 21 8
61 22 5
61 23 3
61 24 2
61 25 7
61 26 6
61 27 5
61 28 8
61 29 3
61 30 1
61 31 7
61 32 8
61 33 7
61 34 6
61 35 3
61 36 3
61 37 7
61 38 2
61 39 5
61 40 8
61 41 7
61 42 3
61 43 6
61 44 7
61 45 8
61 46 2
61 47 1
61 48 5
61 49 5
61 50 3
61 51 4
61 52 8
61 53 6
61 54 5
61 55 1
61 56 8
61 57 5
61 58 7
61 59 3
61 60 3
62 0 8
62 1 5
62 2 6
62 3 7
62 4 3
62 5 1
62 6 5
62 7 4
62 8 6
62 9 8
62 10 7
62 11 5
62 12 1
62 13 6
62 14 6
62 15 6
62 16 2
62 17 5
62 18 1
62 19 2
62 20 8
62 21 3
62 22 8
62 23 8
62 24 5
62 25 6
62 26 6
62 27 1
62 28 1
62 29 6
62 30 1
62 31 4
62 32 8
62 33 6
62 34 6
62 35 8
62 36 3
62 37 5
62 38 6
62 39 5
62 40 8
62 41 1
62 42 3
62 43 4
62 44 5
62 45 6
62 46 1
62 47 4
62 48 7
62 49 4
62 50 5
62 51 3
62 52 8
62 53 7
62 54 5
62 55 3
62 56 7
62 57 6
62 58 7
62 59 1
62 60 4
62 61 1
63 0 3
63 1 4
63 2 5
63 3 6
63 4 7
63 5 5
63 6 7
63 7 2
63 8 3
63 9 1
63 10 5
63 11 4
63 12 6
63 13 7
63 14 2
63 15 4
63 16 4
63 17 4
63 18 1
63 19 4
63 20 7
63 21 1
63 22 1
63 23 3
63 24 3
63 25 4
63 26 5
63 27 4
63 28 6
63 29 8
63 30 3
63 31 8
63 32 7
63 33 3
63 34 4
63 35 2
63 36 3
63 37 6
63 38 7
63 39 3
63 40 3
63 41 2
63 42 7
63 43 6
63 44 4
63 45 4
63 46 6
63 47 6
63 48 5
63 49 7
63 50 2
63 51 2
63 52 2
63 53 8
63 54 1
63 55 6
63 56 3
63 57 3
63 58 2
63 59 5
63 60 4
63 61 1
63 62 7
64 0 7
64 1 5
64 2 3
64 3 7
64 4 2
64 5 2
64 6 8
64 7 3
64 8 6
64 9 8
64 10 2
64 11 8
64 12 4
64 13 1
64 14 5
64 15 4
64 16 1
64 17 7
64 18 4
64 19 4
64 20 7
64 21 8
64 22 4
64 23 3
64 24 2
64 25 6
64 26 1
64 27 6
64 28 2
64 29 7
64 30 2
64 31 7
64 32 5
64 33 3
64 34 8
64 35 5
64 36 5
64 37 7
64 38 6
64 39 7
64 40 4
64 41 3
64 42 8
64 43 4
64 44 5
64 45 6
64 46 8
64 47 6
64 48 1
64 49 4
64 50 3
64 51 8
64 52 2
64 53 4
64 54 4
64 55 8
64 56 1
64 57 2
64 58 3
64 59 7
64 60 3
64 61 7
64 62 4
64 63 4
65 0 2
65 1 8
65 2 4
65 3 2
65 4 5
65 5 6
65 6 4
65 7 2
65 8 7
65 9 7
65 10 2
65 11 6
65 12 6
65 13 4
65 14 8
65 15 4
65 16 7
65 17 1
65 18 4
65 19 8
65 20 7
65 21 6
65 22 2
65 23 3
65 24 1
65 25 5
65 26 4
65 27 3
65 28 2
65 29 1
65 30 7
65 31 6
65 32 8
65 33 8
65 34 2
65 35 8
65 36 2
65 37 4
65 38 5
65 39 5
65 40 2
65 41 6
65 42 3
65 43 7
65 44 8
65 45 6
65 46 7
65 47 5
65 48 7
65 49 3
65 50 5
65 51 8
65 52 1
65 53 5
65 54 2
65 55 1
65 56 6
65 57 6
65 58 4
65 59 8
65 60 5
65 61 5
65 62 6
65 63 6
65 64 7
66 0 8
66 1 2
66 2 2
66 3 4
66 4 2
66 5 1
66 6 2
66 7 7
66 8 1
66 9 1
66 10 8
66 11 7
66 12 4
66 13 7
66 14 2
66 15 4
66 16 7
66 17 2
66 18 4
66 19 5
66 20 1
66 21 5
66 22 5
66 23 4
66 24 6
66 25 6
66 26 5
66 27 5
66 28 2
66 29 1
66 30 8
66 31 8
66 32 7
66 33 2
66 34 6
66 35 8
66 36 3
66 37 7
66 38 6
66 39 1
66 40 6
66 41 6
66 42 6
66 43 7
66 44 4
66 45 3
66 46 2
66 47 8
66 48 7
66 49 5
66 50 2
66 51 3
66 52 6
66 53 1
66 54 1
66 55 7
66 56 6
66 57 1
66 58 7
66 59 4
66 60 4
66 61 1
66 62 1
66 63 3
66 64 3
66 65 5
67 0 6
67 1 4
67 2 7
67 3 3
67 4 6
67 5 7
67 6 8
67 7 7
67 8 3
67 9 8
67 10 3
67 11 3
67 12 4
67 13 4
67 14 4
67 15 3
67 16 7
67 17 1
67 18 3
67 19 6
67 20 4
67 21 8
67 22 3
67 23 5
67 24 2
67 25 5
67 26 3
67 27 5
67 28 8
67 29 5
67 30 2
67 31 1
67 32 3
67 33 6
67 34 3
67 35 3
67 36 5
67 37 7
67 38 1
67 39 2
67 40 6
67 41 8
67 42 3
67 43 5
67 44 7
67 45 4
67 46 6
67 47 8
67 48 6
67 49 2
67 50 8
67 51 6
67 52 4
67 53 5
67 54 3
67 55 5
67 56 8
67 57 5
67 58 3
67 59 1
67 60 1
67 61 7
67 62 3
67 63 2
67 64 6
67 65 3
67 66 6
68 0 2
68 1 7
68 2 5
68 3 5
68 4 8
68 5 8
68 6 1
68 7 4
68 8 5
68 9 5
68 10 5
68 11 7
68 12 6
68 13 8
68 14 3
68 15 2
68 16 6
68 17 1
68 18 2
68 19 7
68 20 4
68 21 6
68 22 5
68 23 3
68 24 4
68 25 4
68 26 2
68 27 1
68 28 3
68 29 3
68 30 4
68 31 8
68 32 4
68 33 3
68 34 1
68 35 2
68 36 8
68 37 5
68 38 7
68 39 2
68 40 3
68 41 8
68 42 5
68 43 5
68 44 6
68 45 4
68 46 7
68 47 5
68 48 4
68 49 1
68 50 7
68 51 8
68 52 4
68 53 8
68 54 7
68 55 2
68 56 5
68 57 3
68 58 7
68 59 4
68 60 4
68 61 8
68 62 2
68 63 6
68 64 2
68 65 8
68 66 4
68 67 2
69 0 2
69 1 2
69 2 8
69 3 5
69 4 2
69 5 2
69 6 5
69 7 4
69 8 7
69 9 6
69 10 8
69 11 7
69 12 2
69 13 5
69 14 4
69 15 6
69 16 2
69 17 1
69 18 4
69 19 4
69 20 2
69 21 8
69 22 3
69 23 3
69 24 4
69 25 6
69 26 1
69 27 3
69 28 2
69 29 1
69 30 4
69 31 1
69 32 5
69 33 6
69 34 6
69 35 7
69 36 7
69 37 3
69 38 2
69 39 7
69 40 3
69 41 5
69 42 3
69 43 4
69 44 7
69 45 5
69 46 7
69 47 1
69 48 3
69 49 4
69 50 1
69 51 2
69 52 7
69 53 8
69 54 6
69 55 6
69 56 6
69 57 8
69 58 8
69 59 1
69 60 5
69 61 5
69 62 1
69 63 1
69 64 6
69 65 1
69 66 1
69 67 6
69 68 5
